% seed = 4455346

mint = 75;
% maxt = 241;

nActs = 42;
dur = [0,2,9,10,10,1,6,7,10,1,8,9,3,8,2,6,3,6,8,2,9,1,7,6,8,10,10,10,10,7,2,10,1,7,4,5,5,4,1,4,9,0];

nSkills = 4;
sreq = [| 0,0,0,0,
	| 3,4,0,1,
	| 0,3,2,2,
	| 4,2,2,4,
	| 3,2,2,3,
	| 0,7,3,7,
	| 7,6,0,0,
	| 1,3,2,2,
	| 0,0,7,5,
	| 5,7,0,0,
	| 0,0,7,7,
	| 2,0,3,4,
	| 5,0,4,5,
	| 2,4,6,5,
	| 4,0,7,0,
	| 4,4,0,0,
	| 4,4,0,3,
	| 2,4,3,2,
	| 0,0,4,7,
	| 4,0,3,6,
	| 6,6,0,0,
	| 5,0,2,3,
	| 7,0,0,6,
	| 0,5,4,3,
	| 2,2,5,0,
	| 0,3,4,5,
	| 0,7,6,0,
	| 5,0,4,3,
	| 7,0,0,4,
	| 7,7,0,0,
	| 7,2,2,4,
	| 3,2,1,2,
	| 7,6,0,0,
	| 4,6,6,0,
	| 6,4,3,3,
	| 0,4,2,5,
	| 4,0,0,7,
	| 3,2,4,4,
	| 1,4,4,2,
	| 0,7,0,5,
	| 6,5,4,3,
	| 0,0,0,0, |];

nResources = 30;
mastery = [| true,false,false,false,
	| true,true,true,false,
	| false,true,false,true,
	| false,true,false,false,
	| false,true,true,false,
	| true,true,false,true,
	| false,false,true,false,
	| true,false,false,false,
	| false,true,false,false,
	| false,true,false,true,
	| true,true,false,true,
	| true,false,true,false,
	| false,true,true,true,
	| true,true,false,true,
	| false,false,true,false,
	| false,true,true,true,
	| false,false,true,false,
	| false,false,true,false,
	| false,false,true,true,
	| true,true,false,true,
	| true,false,false,false,
	| true,false,false,false,
	| false,false,true,true,
	| true,false,true,false,
	| false,true,true,true,
	| false,true,false,false,
	| true,false,true,false,
	| true,false,false,false,
	| false,false,true,false,
	| true,true,true,false, |];

nPrecs = 73;
pred = [1,1,1,2,2,2,3,3,4,4,5,5,5,6,6,6,7,7,7,8,9,9,9,10,10,10,11,12,12,12,13,14,14,14,15,16,16,17,17,18,18,19,19,19,20,21,21,21,22,23,24,25,25,26,26,27,28,29,30,30,31,31,31,32,33,34,35,36,37,38,39,40,41];
succ = [2,3,4,11,20,8,10,13,5,6,25,19,23,9,22,7,18,12,14,38,23,15,32,17,11,19,15,17,34,16,30,34,27,24,28,27,24,26,27,20,39,35,21,32,40,34,37,40,29,41,31,28,36,28,30,32,29,31,36,31,33,37,40,38,35,38,39,39,41,41,42,42,42];

nUnrels = 424;
unpred = [2,2,2,2,2,2,2,2,2,2,2,2,2,2,2,2,2,2,2,2,2,2,2,2,2,3,3,3,3,3,3,3,3,3,3,3,3,3,3,3,4,4,4,4,5,5,5,5,5,5,5,5,5,5,5,5,5,5,5,5,5,5,5,6,6,6,6,6,6,6,7,7,7,7,7,7,7,7,7,7,7,8,8,8,8,8,8,8,8,8,8,8,8,8,8,8,8,8,8,8,8,8,8,8,8,8,8,8,8,8,8,8,9,9,9,9,9,9,9,9,9,9,9,9,9,9,9,9,9,9,9,10,10,10,10,10,10,10,10,10,10,11,11,11,11,11,11,11,11,11,11,11,11,11,11,11,11,11,11,11,11,12,12,12,12,12,12,12,12,12,12,13,13,13,13,13,13,13,13,13,13,13,13,13,13,13,13,13,13,13,14,14,14,14,14,14,14,14,14,14,14,14,14,14,14,15,15,15,15,15,15,15,15,15,15,15,15,15,15,15,15,15,16,16,16,16,16,16,16,16,16,16,16,16,16,16,17,17,17,17,17,17,17,17,17,18,18,18,18,18,18,18,18,18,18,18,18,18,18,18,18,18,18,18,18,19,19,19,19,19,19,19,19,19,19,19,19,19,20,20,20,20,20,20,20,20,20,20,20,20,20,20,20,20,20,20,20,20,21,21,21,21,21,21,21,21,21,21,21,21,21,21,21,22,22,22,22,22,22,22,22,22,22,22,23,23,23,23,23,23,23,23,23,23,23,23,23,23,23,23,23,24,24,24,24,24,24,24,24,24,24,25,25,25,25,25,25,26,26,26,26,27,27,27,27,27,27,27,27,27,27,27,28,28,28,28,28,29,29,29,29,29,30,30,30,31,31,31,31,32,32,32,32,32,32,32,33,33,33,33,33,33,34,34,34,34,34,35,35,35,35,35,36,36,36,36,37,37,37,38,38,39,39,40];
unsucc = [3,4,5,6,7,9,10,12,13,14,16,17,18,19,21,22,23,24,25,26,27,30,32,34,36,4,5,6,7,8,9,12,14,16,18,20,22,23,24,25,8,10,11,13,6,7,8,9,10,11,12,13,14,15,16,17,18,20,22,24,26,27,30,8,10,11,13,19,21,25,8,9,10,11,13,15,19,21,22,23,25,9,10,11,12,13,14,15,16,17,18,19,20,21,22,23,24,25,26,27,28,29,30,31,32,33,34,35,36,37,39,40,10,11,12,13,14,16,17,18,19,20,21,22,24,25,26,27,30,34,36,12,13,14,16,18,20,22,23,24,25,12,13,14,16,17,18,19,20,21,22,23,24,25,26,27,30,32,34,36,38,13,14,15,18,19,20,21,22,23,25,14,15,16,17,18,19,20,21,22,23,24,25,26,27,28,29,32,34,38,15,16,17,18,19,20,21,22,23,25,26,28,29,30,36,16,17,18,19,20,21,22,23,24,25,26,27,30,32,34,36,38,17,18,19,20,21,22,23,25,26,28,29,30,34,36,18,19,20,21,22,23,24,25,34,19,21,22,23,24,25,26,27,28,29,30,31,32,33,34,35,36,37,38,41,20,22,23,24,25,26,27,28,29,30,31,33,36,21,22,23,24,25,26,27,28,29,30,31,32,33,34,35,36,37,38,39,41,22,23,24,25,26,27,28,29,30,31,32,33,35,36,39,23,24,25,26,27,28,30,32,34,36,38,24,25,26,27,28,29,30,31,32,33,34,35,36,37,38,39,40,25,26,27,28,29,30,32,34,36,38,26,27,30,32,34,38,27,32,34,38,28,29,30,31,33,34,35,36,37,39,40,30,32,34,36,38,30,32,34,36,38,32,34,38,32,34,36,38,33,34,35,36,37,39,40,34,36,37,38,40,41,35,36,37,39,40,36,37,38,40,41,37,38,40,41,38,39,40,39,40,40,41,41];

USEFUL_RES = [{},
	{1,2,3,4,5,6,8,9,10,11,12,13,14,16,19,20,21,22,23,24,25,26,27,28,30},
	{2,3,4,5,6,7,9,10,11,12,13,14,15,16,17,18,19,20,23,24,25,26,27,29,30},
	{1,2,3,4,5,6,7,8,9,10,11,12,13,14,15,16,17,18,19,20,21,22,23,24,25,26,27,28,29,30},
	{1,2,3,4,5,6,7,8,9,10,11,12,13,14,15,16,17,18,19,20,21,22,23,24,25,26,27,28,29,30},
	{2,3,4,5,6,7,9,10,11,12,13,14,15,16,17,18,19,20,23,24,25,26,27,29,30},
	{1,2,3,4,5,6,8,9,10,11,12,13,14,16,20,21,22,24,25,26,27,28,30},
	{1,2,3,4,5,6,7,8,9,10,11,12,13,14,15,16,17,18,19,20,21,22,23,24,25,26,27,28,29,30},
	{2,3,5,6,7,10,11,12,13,14,15,16,17,18,19,20,23,24,25,27,29,30},
	{1,2,3,4,5,6,8,9,10,11,12,13,14,16,20,21,22,24,25,26,27,28,30},
	{2,3,5,6,7,10,11,12,13,14,15,16,17,18,19,20,23,24,25,27,29,30},
	{1,2,3,5,6,7,8,10,11,12,13,14,15,16,17,18,19,20,21,22,23,24,25,27,28,29,30},
	{1,2,3,5,6,7,8,10,11,12,13,14,15,16,17,18,19,20,21,22,23,24,25,27,28,29,30},
	{1,2,3,4,5,6,7,8,9,10,11,12,13,14,15,16,17,18,19,20,21,22,23,24,25,26,27,28,29,30},
	{1,2,5,6,7,8,11,12,13,14,15,16,17,18,19,20,21,22,23,24,25,27,28,29,30},
	{1,2,3,4,5,6,8,9,10,11,12,13,14,16,20,21,22,24,25,26,27,28,30},
	{1,2,3,4,5,6,8,9,10,11,12,13,14,16,19,20,21,22,23,24,25,26,27,28,30},
	{1,2,3,4,5,6,7,8,9,10,11,12,13,14,15,16,17,18,19,20,21,22,23,24,25,26,27,28,29,30},
	{2,3,5,6,7,10,11,12,13,14,15,16,17,18,19,20,23,24,25,27,29,30},
	{1,2,3,5,6,7,8,10,11,12,13,14,15,16,17,18,19,20,21,22,23,24,25,27,28,29,30},
	{1,2,3,4,5,6,8,9,10,11,12,13,14,16,20,21,22,24,25,26,27,28,30},
	{1,2,3,5,6,7,8,10,11,12,13,14,15,16,17,18,19,20,21,22,23,24,25,27,28,29,30},
	{1,2,3,6,8,10,11,12,13,14,16,19,20,21,22,23,24,25,27,28,30},
	{2,3,4,5,6,7,9,10,11,12,13,14,15,16,17,18,19,20,23,24,25,26,27,29,30},
	{1,2,3,4,5,6,7,8,9,10,11,12,13,14,15,16,17,18,19,20,21,22,23,24,25,26,27,28,29,30},
	{2,3,4,5,6,7,9,10,11,12,13,14,15,16,17,18,19,20,23,24,25,26,27,29,30},
	{2,3,4,5,6,7,9,10,11,12,13,14,15,16,17,18,19,20,23,24,25,26,27,29,30},
	{1,2,3,5,6,7,8,10,11,12,13,14,15,16,17,18,19,20,21,22,23,24,25,27,28,29,30},
	{1,2,3,6,8,10,11,12,13,14,16,19,20,21,22,23,24,25,27,28,30},
	{1,2,3,4,5,6,8,9,10,11,12,13,14,16,20,21,22,24,25,26,27,28,30},
	{1,2,3,4,5,6,7,8,9,10,11,12,13,14,15,16,17,18,19,20,21,22,23,24,25,26,27,28,29,30},
	{1,2,3,4,5,6,7,8,9,10,11,12,13,14,15,16,17,18,19,20,21,22,23,24,25,26,27,28,29,30},
	{1,2,3,4,5,6,8,9,10,11,12,13,14,16,20,21,22,24,25,26,27,28,30},
	{1,2,3,4,5,6,7,8,9,10,11,12,13,14,15,16,17,18,19,20,21,22,23,24,25,26,27,28,29,30},
	{1,2,3,4,5,6,7,8,9,10,11,12,13,14,15,16,17,18,19,20,21,22,23,24,25,26,27,28,29,30},
	{2,3,4,5,6,7,9,10,11,12,13,14,15,16,17,18,19,20,23,24,25,26,27,29,30},
	{1,2,3,6,8,10,11,12,13,14,16,19,20,21,22,23,24,25,27,28,30},
	{1,2,3,4,5,6,7,8,9,10,11,12,13,14,15,16,17,18,19,20,21,22,23,24,25,26,27,28,29,30},
	{1,2,3,4,5,6,7,8,9,10,11,12,13,14,15,16,17,18,19,20,21,22,23,24,25,26,27,28,29,30},
	{2,3,4,5,6,9,10,11,13,14,16,19,20,23,25,26,30},
	{1,2,3,4,5,6,7,8,9,10,11,12,13,14,15,16,17,18,19,20,21,22,23,24,25,26,27,28,29,30},
	{}];

POTENTIAL_ACT = [{2,4,5,7,8,10,12,13,14,15,16,17,18,20,21,22,23,25,28,29,30,31,32,33,34,35,37,38,39,41},
	{2,3,4,5,6,7,8,9,10,11,12,13,14,15,16,17,18,19,20,21,22,23,24,25,26,27,28,29,30,31,32,33,34,35,36,37,38,39,40,41},
	{2,3,4,5,6,7,8,9,10,11,12,13,14,16,17,18,19,20,21,22,23,24,25,26,27,28,29,30,31,32,33,34,35,36,37,38,39,40,41},
	{2,3,4,5,6,7,8,10,14,16,17,18,21,24,25,26,27,30,31,32,33,34,35,36,38,39,40,41},
	{2,3,4,5,6,7,8,9,10,11,12,13,14,15,16,17,18,19,20,21,22,24,25,26,27,28,30,31,32,33,34,35,36,38,39,40,41},
	{2,3,4,5,6,7,8,9,10,11,12,13,14,15,16,17,18,19,20,21,22,23,24,25,26,27,28,29,30,31,32,33,34,35,36,37,38,39,40,41},
	{3,4,5,6,8,9,11,12,13,14,15,18,19,20,22,24,25,26,27,28,31,32,34,35,36,38,39,41},
	{2,4,5,7,8,10,12,13,14,15,16,17,18,20,21,22,23,25,28,29,30,31,32,33,34,35,37,38,39,41},
	{2,3,4,5,6,7,8,10,14,16,17,18,21,24,25,26,27,30,31,32,33,34,35,36,38,39,40,41},
	{2,3,4,5,6,7,8,9,10,11,12,13,14,16,17,18,19,20,21,22,23,24,25,26,27,28,29,30,31,32,33,34,35,36,37,38,39,40,41},
	{2,3,4,5,6,7,8,9,10,11,12,13,14,15,16,17,18,19,20,21,22,23,24,25,26,27,28,29,30,31,32,33,34,35,36,37,38,39,40,41},
	{2,3,4,5,6,7,8,9,10,11,12,13,14,15,16,17,18,19,20,21,22,23,24,25,26,27,28,29,30,31,32,33,34,35,36,37,38,39,41},
	{2,3,4,5,6,7,8,9,10,11,12,13,14,15,16,17,18,19,20,21,22,23,24,25,26,27,28,29,30,31,32,33,34,35,36,37,38,39,40,41},
	{2,3,4,5,6,7,8,9,10,11,12,13,14,15,16,17,18,19,20,21,22,23,24,25,26,27,28,29,30,31,32,33,34,35,36,37,38,39,40,41},
	{3,4,5,6,8,9,11,12,13,14,15,18,19,20,22,24,25,26,27,28,31,32,34,35,36,38,39,41},
	{2,3,4,5,6,7,8,9,10,11,12,13,14,15,16,17,18,19,20,21,22,23,24,25,26,27,28,29,30,31,32,33,34,35,36,37,38,39,40,41},
	{3,4,5,6,8,9,11,12,13,14,15,18,19,20,22,24,25,26,27,28,31,32,34,35,36,38,39,41},
	{3,4,5,6,8,9,11,12,13,14,15,18,19,20,22,24,25,26,27,28,31,32,34,35,36,38,39,41},
	{2,3,4,5,6,8,9,11,12,13,14,15,17,18,19,20,22,23,24,25,26,27,28,29,31,32,34,35,36,37,38,39,40,41},
	{2,3,4,5,6,7,8,9,10,11,12,13,14,15,16,17,18,19,20,21,22,23,24,25,26,27,28,29,30,31,32,33,34,35,36,37,38,39,40,41},
	{2,4,5,7,8,10,12,13,14,15,16,17,18,20,21,22,23,25,28,29,30,31,32,33,34,35,37,38,39,41},
	{2,4,5,7,8,10,12,13,14,15,16,17,18,20,21,22,23,25,28,29,30,31,32,33,34,35,37,38,39,41},
	{2,3,4,5,6,8,9,11,12,13,14,15,17,18,19,20,22,23,24,25,26,27,28,29,31,32,34,35,36,37,38,39,40,41},
	{2,3,4,5,6,7,8,9,10,11,12,13,14,15,16,17,18,19,20,21,22,23,24,25,26,27,28,29,30,31,32,33,34,35,36,37,38,39,41},
	{2,3,4,5,6,7,8,9,10,11,12,13,14,15,16,17,18,19,20,21,22,23,24,25,26,27,28,29,30,31,32,33,34,35,36,37,38,39,40,41},
	{2,3,4,5,6,7,8,10,14,16,17,18,21,24,25,26,27,30,31,32,33,34,35,36,38,39,40,41},
	{2,3,4,5,6,7,8,9,10,11,12,13,14,15,16,17,18,19,20,21,22,23,24,25,26,27,28,29,30,31,32,33,34,35,36,37,38,39,41},
	{2,4,5,7,8,10,12,13,14,15,16,17,18,20,21,22,23,25,28,29,30,31,32,33,34,35,37,38,39,41},
	{3,4,5,6,8,9,11,12,13,14,15,18,19,20,22,24,25,26,27,28,31,32,34,35,36,38,39,41},
	{2,3,4,5,6,7,8,9,10,11,12,13,14,15,16,17,18,19,20,21,22,23,24,25,26,27,28,29,30,31,32,33,34,35,36,37,38,39,40,41}];
